(declare-fun temp70_1 () (_ BitVec 64))
(declare-fun var79569 () (_ BitVec 64))
(declare-fun k!0 () Bool)
(declare-fun ARGNAME_input1_NAMEEND_DIM () (_ BitVec 64))
(declare-fun ARGNAME_input2_NAMEEND_DIM () (_ BitVec 64))
(declare-fun temp70_2 () (_ BitVec 64))
(declare-fun var79623 () (_ BitVec 64))
(declare-fun var204300 () (_ BitVec 64))
(declare-fun temp70_4 () (_ BitVec 64))
(declare-fun temp70_3 () (_ BitVec 64))
(declare-fun var267251 () (_ BitVec 64))
(declare-fun var267252 () (_ BitVec 64))
(declare-fun temp70_5 () (_ BitVec 64))
(declare-fun temp70_6 () (_ BitVec 64))
(declare-fun var336917 () (_ BitVec 64))
(declare-fun var402464 () (_ BitVec 64))
(declare-fun var204318 () (_ BitVec 64))
(declare-fun temp70_7 () (_ BitVec 64))
(declare-fun var79724 () (_ BitVec 64))
(declare-fun temp70_8 () (_ BitVec 64))
(declare-fun temp70_9 () (_ BitVec 64))
(declare-fun ARGNAME_input1_NAMEEND_DIMSIZE
             ()
             (Array (_ BitVec 64) (_ BitVec 64)))
(declare-fun temp70_10 () (_ BitVec 64))
(declare-fun temp70_11 () (_ BitVec 64))
(declare-fun temp70_12 () (_ BitVec 64))
(declare-fun temp70_13 () (_ BitVec 64))
(declare-fun temp70_14 () (_ BitVec 64))
(declare-fun temp70_15 () (_ BitVec 64))
(declare-fun temp70_16 () (_ BitVec 64))
(declare-fun temp70_17 () (_ BitVec 64))
(declare-fun temp70_18 () (_ BitVec 64))
(declare-fun temp70_19 () (_ BitVec 64))
(declare-fun temp70_20 () (_ BitVec 64))
(declare-fun temp70_21 () (_ BitVec 64))
(declare-fun temp70_22 () (_ BitVec 64))
(declare-fun temp70_23 () (_ BitVec 64))
(declare-fun temp70_24 () (_ BitVec 64))
(declare-fun temp70_25 () (_ BitVec 64))
(declare-fun temp70_26 () (_ BitVec 64))
(declare-fun temp70_27 () (_ BitVec 64))
(declare-fun temp70_28 () (_ BitVec 64))
(declare-fun var79725 () (_ BitVec 64))
(declare-fun temp70_29 () (_ BitVec 64))
(declare-fun var66592 () (_ BitVec 64))
(declare-fun temp70_30 () (_ BitVec 64))
(declare-fun temp70_31 () (_ BitVec 64))
(declare-fun ARGNAME_weight_NAMEEND_DIMSIZE
             ()
             (Array (_ BitVec 64) (_ BitVec 64)))
(declare-fun temp70_32 () (_ BitVec 64))
(declare-fun temp70_33 () (_ BitVec 64))
(declare-fun temp70_34 () (_ BitVec 64))
(declare-fun temp70_35 () (_ BitVec 64))
(declare-fun temp70_36 () (_ BitVec 64))
(declare-fun temp70_37 () (_ BitVec 64))
(declare-fun temp70_38 () (_ BitVec 64))
(declare-fun temp70_39 () (_ BitVec 64))
(declare-fun temp70_40 () (_ BitVec 64))
(declare-fun temp70_41 () (_ BitVec 64))
(declare-fun temp70_42 () (_ BitVec 64))
(declare-fun temp70_43 () (_ BitVec 64))
(declare-fun temp70_44 () (_ BitVec 64))
(declare-fun temp70_45 () (_ BitVec 64))
(declare-fun temp70_46 () (_ BitVec 64))
(declare-fun temp70_47 () (_ BitVec 64))
(declare-fun temp70_48 () (_ BitVec 64))
(declare-fun ARGNAME_weight_NAMEEND_DIM () (_ BitVec 64))
(declare-fun temp70_49 () (_ BitVec 64))
(declare-fun temp70_50 () (_ BitVec 64))
(declare-fun var79727 () (_ BitVec 64))
(declare-fun var79728 () (_ BitVec 64))
(declare-fun temp70_51 () (_ BitVec 64))
(declare-fun temp70_52 () (_ BitVec 64))
(declare-fun var79776 () (_ BitVec 64))
(declare-fun temp70_53 () (_ BitVec 64))
(declare-fun temp70_54 () (_ BitVec 64))
(declare-fun ARGNAME_input2_NAMEEND_DIMSIZE
             ()
             (Array (_ BitVec 64) (_ BitVec 64)))
(declare-fun temp70_55 () (_ BitVec 64))
(declare-fun temp70_56 () (_ BitVec 64))
(declare-fun temp70_57 () (_ BitVec 64))
(declare-fun temp70_58 () (_ BitVec 64))
(declare-fun temp70_59 () (_ BitVec 64))
(declare-fun temp70_60 () (_ BitVec 64))
(declare-fun temp70_61 () (_ BitVec 64))
(declare-fun temp70_62 () (_ BitVec 64))
(declare-fun temp70_63 () (_ BitVec 64))
(declare-fun temp70_64 () (_ BitVec 64))
(declare-fun temp70_65 () (_ BitVec 64))
(declare-fun temp70_66 () (_ BitVec 64))
(declare-fun temp70_67 () (_ BitVec 64))
(declare-fun temp70_68 () (_ BitVec 64))
(declare-fun temp70_69 () (_ BitVec 64))
(declare-fun temp70_70 () (_ BitVec 64))
(declare-fun temp70_71 () (_ BitVec 64))
(declare-fun temp70_72 () (_ BitVec 64))
(declare-fun temp70_73 () (_ BitVec 64))
(declare-fun var79777 () (_ BitVec 64))
(declare-fun temp70_74 () (_ BitVec 64))
(declare-fun var66492 () (_ BitVec 64))
(declare-fun temp70_75 () (_ BitVec 64))
(declare-fun temp70_76 () (_ BitVec 64))
(declare-fun temp70_77 () (_ BitVec 64))
(declare-fun var79778 () (_ BitVec 64))
(declare-fun var79779 () (_ BitVec 64))
(declare-fun temp70_78 () (_ BitVec 64))
(declare-fun temp70_79 () (_ BitVec 64))
(declare-fun var65961 () (_ BitVec 64))
(declare-fun temp70_80 () (_ BitVec 64))
(declare-fun temp70_81 () (_ BitVec 64))
(declare-fun ARGNAME_bias_NAMEEND_DIMSIZE
             ()
             (Array (_ BitVec 64) (_ BitVec 64)))
(declare-fun temp70_82 () (_ BitVec 64))
(declare-fun temp70_83 () (_ BitVec 64))
(declare-fun temp70_84 () (_ BitVec 64))
(declare-fun temp70_85 () (_ BitVec 64))
(declare-fun temp70_86 () (_ BitVec 64))
(declare-fun temp70_87 () (_ BitVec 64))
(declare-fun temp70_88 () (_ BitVec 64))
(declare-fun temp70_89 () (_ BitVec 64))
(declare-fun temp70_90 () (_ BitVec 64))
(declare-fun temp70_91 () (_ BitVec 64))
(declare-fun temp70_92 () (_ BitVec 64))
(declare-fun temp70_93 () (_ BitVec 64))
(declare-fun temp70_94 () (_ BitVec 64))
(declare-fun temp70_95 () (_ BitVec 64))
(declare-fun temp70_96 () (_ BitVec 64))
(declare-fun temp70_97 () (_ BitVec 64))
(declare-fun temp70_98 () (_ BitVec 64))
(declare-fun ARGNAME_bias_NAMEEND_DIM () (_ BitVec 64))
(declare-fun temp70_99 () (_ BitVec 64))
(declare-fun temp70_100 () (_ BitVec 64))
(declare-fun var79827 () (_ BitVec 64))
(declare-fun temp70_101 () (_ BitVec 64))
(declare-fun temp70_102 () (_ BitVec 64))
(declare-fun temp70_103 () (_ BitVec 64))
(declare-fun temp70_104 () (_ BitVec 64))
(declare-fun var79828 () (_ BitVec 64))
(declare-fun var79829 () (_ BitVec 64))
(declare-fun temp70_105 () (_ BitVec 64))
(declare-fun temp70_106 () (_ BitVec 64))
(declare-fun temp70_107 () (_ BitVec 64))
(declare-fun temp70_108 () (_ BitVec 64))
(declare-fun temp70_109 () (_ BitVec 64))
(declare-fun var79903 () (_ BitVec 64))
(declare-fun temp70_110 () (_ BitVec 64))
(declare-fun var3023325 () (_ BitVec 64))
(declare-fun temp70_112 () (_ BitVec 64))
(declare-fun temp70_111 () (_ BitVec 64))
(declare-fun temp70_113 () (_ BitVec 64))
(declare-fun var67207 () (_ BitVec 64))
(declare-fun temp70_114 () (_ BitVec 64))
(declare-fun temp70_115 () (_ BitVec 64))
(declare-fun temp70_116 () (_ BitVec 64))
(declare-fun var79915 () (_ BitVec 64))
(declare-fun temp70_117 () (_ BitVec 64))
(declare-fun temp70_118 () (_ BitVec 64))
(declare-fun temp70_119 () (_ BitVec 64))
(declare-fun temp70_120 () (_ BitVec 64))
(declare-fun var79938 () (_ BitVec 64))
(declare-fun temp70_122 () (_ BitVec 64))
(declare-fun temp70_121 () (_ BitVec 64))
(declare-fun temp70_124 () (_ BitVec 64))
(declare-fun temp70_123 () (_ BitVec 64))
(declare-fun var4533243 () (_ BitVec 64))
(declare-fun temp70_125 () (_ BitVec 64))
(declare-fun var4533374 () (_ BitVec 64))
(declare-fun temp70_127 () (_ BitVec 64))
(declare-fun temp70_126 () (_ BitVec 64))
(declare-fun temp70_128 () (_ BitVec 64))
(declare-fun var5318818 () (_ BitVec 64))
(declare-fun temp70_129 () (_ BitVec 64))
(declare-fun var5973063 () (_ BitVec 64))
(declare-fun temp70_131 () (_ BitVec 64))
(declare-fun temp70_130 () (_ BitVec 64))
(declare-fun temp70_132 () (_ BitVec 64))
(declare-fun var6957218 () (_ BitVec 64))
(declare-fun temp70_133 () (_ BitVec 64))
(declare-fun var7611463 () (_ BitVec 64))
(declare-fun temp70_135 () (_ BitVec 64))
(declare-fun temp70_134 () (_ BitVec 64))
(declare-fun temp70_136 () (_ BitVec 64))
(declare-fun var8595618 () (_ BitVec 64))
(declare-fun temp70_137 () (_ BitVec 64))
(declare-fun var9249863 () (_ BitVec 64))
(declare-fun temp70_139 () (_ BitVec 64))
(declare-fun temp70_138 () (_ BitVec 64))
(declare-fun temp70_140 () (_ BitVec 64))
(declare-fun var10234018 () (_ BitVec 64))
(declare-fun temp70_141 () (_ BitVec 64))
(declare-fun var10888263 () (_ BitVec 64))
(declare-fun temp70_143 () (_ BitVec 64))
(declare-fun temp70_142 () (_ BitVec 64))
(declare-fun temp70_144 () (_ BitVec 64))
(declare-fun var11871253 () (_ BitVec 64))
(declare-fun var11936800 () (_ BitVec 64))
(declare-fun temp70_145 () (_ BitVec 64))
(declare-fun var4533542 () (_ BitVec 64))
(declare-fun temp70_146 () (_ BitVec 64))
(declare-fun var4533583 () (_ BitVec 64))
(declare-fun var4533617 () (_ BitVec 64))
(declare-fun var4533671 () (_ BitVec 64))
(declare-fun var15081033 () (_ BitVec 64))
(declare-fun var15408713 () (_ BitVec 64))
(declare-fun var15736393 () (_ BitVec 64))
(declare-fun temp70_147 () (_ BitVec 64))
(declare-fun ARGNAME_weight_NAMEEND_NUMELEMENT () (_ BitVec 64))
(declare-fun var4533720 () (_ BitVec 64))
(declare-fun temp70_148 () (_ BitVec 64))
(declare-fun var16850505 () (_ BitVec 64))
(declare-fun temp70_150 () (_ BitVec 64))
(declare-fun temp70_149 () (_ BitVec 64))
(declare-fun temp70_151 () (_ BitVec 64))
(declare-fun var17310741 () (_ BitVec 64))
(declare-fun var17376288 () (_ BitVec 64))
(declare-fun var17772587 () (_ BitVec 64))
(declare-fun temp70_152 () (_ BitVec 64))
(declare-fun var17772589 () (_ BitVec 64))
(declare-fun var17838123 () (_ BitVec 64))
(declare-fun temp70_153 () (_ BitVec 64))
(declare-fun var17838125 () (_ BitVec 64))
(declare-fun var18362411 () (_ BitVec 64))
(declare-fun temp70_154 () (_ BitVec 64))
(declare-fun var18362413 () (_ BitVec 64))
(declare-fun temp70_155 () (_ BitVec 64))
(declare-fun var19735623 () (_ BitVec 64))
(declare-fun temp70_157 () (_ BitVec 64))
(declare-fun temp70_156 () (_ BitVec 64))
(declare-fun temp70_158 () (_ BitVec 64))
(declare-fun var20522005 () (_ BitVec 64))
(declare-fun temp70_159 () (_ BitVec 64))
(declare-fun var18683626 () (_ BitVec 64))
(declare-fun var18683596 () (_ BitVec 64))
(declare-fun var18683595 () (_ BitVec 64))
(declare-fun temp70_161 () (_ BitVec 64))
(declare-fun temp70_160 () (_ BitVec 64))
(declare-fun temp70_162 () (_ BitVec 64))
(declare-fun var18684104 () (_ BitVec 64))
(declare-fun temp70_163 () (_ BitVec 64))
(declare-fun var18684038 () (_ BitVec 64))
(declare-fun var18684037 () (_ BitVec 64))
(declare-fun var18684116 () (_ BitVec 64))
(declare-fun var18684152 () (_ BitVec 64))
(declare-fun temp70_164 () (_ BitVec 64))
(declare-fun var18684136 () (_ BitVec 64))
(declare-fun var18684135 () (_ BitVec 64))
(declare-fun temp70_166 () (_ BitVec 64))
(declare-fun temp70_165 () (_ BitVec 64))
(declare-fun temp70_168 () (_ BitVec 64))
(declare-fun temp70_167 () (_ BitVec 64))
(assert (= var79569
   (ite (= ARGNAME_input1_NAMEEND_DIM ARGNAME_input2_NAMEEND_DIM)
        #x0000000000000001
        #x0000000000000000)))
(assert (= temp70_1 #x0000000000000001))
(assert (= var79569 temp70_1))
(assert (= temp70_2 #xffffffffffffffff))
(assert (= var79623 (bvadd ARGNAME_input1_NAMEEND_DIM temp70_2)))
(assert (= var204300 var79623))
(assert (= temp70_4 #x0000000000000000))
(assert (= temp70_3 temp70_4))
(assert (= var267251 var204300))
(assert (= var267252
   (ite (bvslt temp70_3 var267251) #x0000000000000001 #x0000000000000000)))
(assert (= temp70_5 (ite (= var267252 #x0000000000000001) var204300 temp70_3)))
(assert (= temp70_6 #x0000000000000000))
(assert (= var336917 temp70_6))
(assert (= var402464 var336917))
(assert (= var204318 var402464))
(assert (= temp70_7 #xffffffffffffffff))
(assert (= var79724 (bvadd ARGNAME_input1_NAMEEND_DIM temp70_7)))
(assert (= temp70_8 #x0000000000000000))
(assert (= temp70_9 temp70_8))
(assert (= temp70_10 (select ARGNAME_input1_NAMEEND_DIMSIZE temp70_9)))
(assert (= temp70_11 #x0000000000000001))
(assert (= temp70_12 temp70_11))
(assert (= temp70_13 (select ARGNAME_input1_NAMEEND_DIMSIZE temp70_12)))
(assert (= temp70_14 #x0000000000000002))
(assert (= temp70_15 temp70_14))
(assert (= temp70_16 (select ARGNAME_input1_NAMEEND_DIMSIZE temp70_15)))
(assert (= temp70_17 #x0000000000000003))
(assert (= temp70_18 temp70_17))
(assert (= temp70_19 (select ARGNAME_input1_NAMEEND_DIMSIZE temp70_18)))
(assert (= temp70_20 #x0000000000000004))
(assert (= temp70_21 temp70_20))
(assert (= temp70_22 (select ARGNAME_input1_NAMEEND_DIMSIZE temp70_21)))
(assert (= temp70_23 #x0000000000000005))
(assert (= temp70_24 temp70_23))
(assert (= temp70_25 (select ARGNAME_input1_NAMEEND_DIMSIZE temp70_24)))
(assert (= temp70_26 #x0000000000000000))
(assert (= temp70_27
   (ite (bvslt var79724 temp70_26)
        (bvadd ARGNAME_input1_NAMEEND_DIM var79724)
        var79724)))
(assert (= temp70_28 (select ARGNAME_input1_NAMEEND_DIMSIZE temp70_27)))
(assert (= var79725 temp70_28))
(assert (bvslt (ite (bvslt var79724 temp70_26)
            (bvadd ARGNAME_input1_NAMEEND_DIM var79724)
            var79724)
       ARGNAME_input1_NAMEEND_DIM))
(assert (= temp70_29 #x0000000000000001))
(assert (= var66592 temp70_29))
(assert (= temp70_30 #x0000000000000000))
(assert (= temp70_31 temp70_30))
(assert (= temp70_32 (select ARGNAME_weight_NAMEEND_DIMSIZE temp70_31)))
(assert (= temp70_33 #x0000000000000001))
(assert (= temp70_34 temp70_33))
(assert (= temp70_35 (select ARGNAME_weight_NAMEEND_DIMSIZE temp70_34)))
(assert (= temp70_36 #x0000000000000002))
(assert (= temp70_37 temp70_36))
(assert (= temp70_38 (select ARGNAME_weight_NAMEEND_DIMSIZE temp70_37)))
(assert (= temp70_39 #x0000000000000003))
(assert (= temp70_40 temp70_39))
(assert (= temp70_41 (select ARGNAME_weight_NAMEEND_DIMSIZE temp70_40)))
(assert (= temp70_42 #x0000000000000004))
(assert (= temp70_43 temp70_42))
(assert (= temp70_44 (select ARGNAME_weight_NAMEEND_DIMSIZE temp70_43)))
(assert (= temp70_45 #x0000000000000005))
(assert (= temp70_46 temp70_45))
(assert (= temp70_47 (select ARGNAME_weight_NAMEEND_DIMSIZE temp70_46)))
(assert (= temp70_48 #x0000000000000000))
(assert (= temp70_49
   (ite (bvslt var66592 temp70_48)
        (bvadd ARGNAME_weight_NAMEEND_DIM var66592)
        var66592)))
(assert (= temp70_50 (select ARGNAME_weight_NAMEEND_DIMSIZE temp70_49)))
(assert (= var79727 temp70_50))
(assert (bvslt (ite (bvslt var66592 temp70_48)
            (bvadd ARGNAME_weight_NAMEEND_DIM var66592)
            var66592)
       ARGNAME_weight_NAMEEND_DIM))
(assert (= var79728 (ite (= var79725 var79727) #x0000000000000001 #x0000000000000000)))
(assert (= temp70_51 #x0000000000000001))
(assert (= var79728 temp70_51))
(assert (= temp70_52 #xffffffffffffffff))
(assert (= var79776 (bvadd ARGNAME_input2_NAMEEND_DIM temp70_52)))
(assert (= temp70_53 #x0000000000000000))
(assert (= temp70_54 temp70_53))
(assert (= temp70_55 (select ARGNAME_input2_NAMEEND_DIMSIZE temp70_54)))
(assert (= temp70_56 #x0000000000000001))
(assert (= temp70_57 temp70_56))
(assert (= temp70_58 (select ARGNAME_input2_NAMEEND_DIMSIZE temp70_57)))
(assert (= temp70_59 #x0000000000000002))
(assert (= temp70_60 temp70_59))
(assert (= temp70_61 (select ARGNAME_input2_NAMEEND_DIMSIZE temp70_60)))
(assert (= temp70_62 #x0000000000000003))
(assert (= temp70_63 temp70_62))
(assert (= temp70_64 (select ARGNAME_input2_NAMEEND_DIMSIZE temp70_63)))
(assert (= temp70_65 #x0000000000000004))
(assert (= temp70_66 temp70_65))
(assert (= temp70_67 (select ARGNAME_input2_NAMEEND_DIMSIZE temp70_66)))
(assert (= temp70_68 #x0000000000000005))
(assert (= temp70_69 temp70_68))
(assert (= temp70_70 (select ARGNAME_input2_NAMEEND_DIMSIZE temp70_69)))
(assert (= temp70_71 #x0000000000000000))
(assert (= temp70_72
   (ite (bvslt var79776 temp70_71)
        (bvadd ARGNAME_input2_NAMEEND_DIM var79776)
        var79776)))
(assert (= temp70_73 (select ARGNAME_input2_NAMEEND_DIMSIZE temp70_72)))
(assert (= var79777 temp70_73))
(assert (bvslt (ite (bvslt var79776 temp70_71)
            (bvadd ARGNAME_input2_NAMEEND_DIM var79776)
            var79776)
       ARGNAME_input2_NAMEEND_DIM))
(assert (= temp70_74 #x0000000000000002))
(assert (= var66492 temp70_74))
(assert (= temp70_75 #x0000000000000000))
(assert (= temp70_76
   (ite (bvslt var66492 temp70_75)
        (bvadd ARGNAME_weight_NAMEEND_DIM var66492)
        var66492)))
(assert (= temp70_77 (select ARGNAME_weight_NAMEEND_DIMSIZE temp70_76)))
(assert (= var79778 temp70_77))
(assert (bvslt (ite (bvslt var66492 temp70_75)
            (bvadd ARGNAME_weight_NAMEEND_DIM var66492)
            var66492)
       ARGNAME_weight_NAMEEND_DIM))
(assert (= var79779 (ite (= var79777 var79778) #x0000000000000001 #x0000000000000000)))
(assert (= temp70_78 #x0000000000000001))
(assert (= var79779 temp70_78))
(assert (= temp70_79 #x0000000000000000))
(assert (= var65961 temp70_79))
(assert (= temp70_80 #x0000000000000000))
(assert (= temp70_81 temp70_80))
(assert (= temp70_82 (select ARGNAME_bias_NAMEEND_DIMSIZE temp70_81)))
(assert (= temp70_83 #x0000000000000001))
(assert (= temp70_84 temp70_83))
(assert (= temp70_85 (select ARGNAME_bias_NAMEEND_DIMSIZE temp70_84)))
(assert (= temp70_86 #x0000000000000002))
(assert (= temp70_87 temp70_86))
(assert (= temp70_88 (select ARGNAME_bias_NAMEEND_DIMSIZE temp70_87)))
(assert (= temp70_89 #x0000000000000003))
(assert (= temp70_90 temp70_89))
(assert (= temp70_91 (select ARGNAME_bias_NAMEEND_DIMSIZE temp70_90)))
(assert (= temp70_92 #x0000000000000004))
(assert (= temp70_93 temp70_92))
(assert (= temp70_94 (select ARGNAME_bias_NAMEEND_DIMSIZE temp70_93)))
(assert (= temp70_95 #x0000000000000005))
(assert (= temp70_96 temp70_95))
(assert (= temp70_97 (select ARGNAME_bias_NAMEEND_DIMSIZE temp70_96)))
(assert (= temp70_98 #x0000000000000000))
(assert (= temp70_99
   (ite (bvslt var65961 temp70_98)
        (bvadd ARGNAME_bias_NAMEEND_DIM var65961)
        var65961)))
(assert (= temp70_100 (select ARGNAME_bias_NAMEEND_DIMSIZE temp70_99)))
(assert (= var79827 temp70_100))
(assert (bvslt (ite (bvslt var65961 temp70_98)
            (bvadd ARGNAME_bias_NAMEEND_DIM var65961)
            var65961)
       ARGNAME_bias_NAMEEND_DIM))
(assert (= temp70_101 #x0000000000000000))
(assert (= var65961 temp70_101))
(assert (= temp70_102 #x0000000000000000))
(assert (= temp70_103
   (ite (bvslt var65961 temp70_102)
        (bvadd ARGNAME_weight_NAMEEND_DIM var65961)
        var65961)))
(assert (= temp70_104 (select ARGNAME_weight_NAMEEND_DIMSIZE temp70_103)))
(assert (= var79828 temp70_104))
(assert (bvslt (ite (bvslt var65961 temp70_102)
            (bvadd ARGNAME_weight_NAMEEND_DIM var65961)
            var65961)
       ARGNAME_weight_NAMEEND_DIM))
(assert (= var79829 (ite (= var79827 var79828) #x0000000000000001 #x0000000000000000)))
(assert (= temp70_105 #x0000000000000001))
(assert (= var79829 temp70_105))
(assert (= temp70_106 #x0000000000000000))
(assert (= var65961 temp70_106))
(assert (= temp70_107 #x0000000000000000))
(assert (= temp70_108
   (ite (bvslt var65961 temp70_107)
        (bvadd ARGNAME_weight_NAMEEND_DIM var65961)
        var65961)))
(assert (= temp70_109 (select ARGNAME_weight_NAMEEND_DIMSIZE temp70_108)))
(assert (= var79903 temp70_109))
(assert (bvslt (ite (bvslt var65961 temp70_107)
            (bvadd ARGNAME_weight_NAMEEND_DIM var65961)
            var65961)
       ARGNAME_weight_NAMEEND_DIM))
(assert (= temp70_110 #x0000000000000001))
(assert (= var3023325 temp70_110))
(assert (= temp70_112 #xffffffffffffffff))
(assert (= temp70_111 temp70_112))
(assert (= temp70_113 #xffffffffffffffff))
(assert (= var67207 temp70_113))
(assert (= temp70_114 #x0000000000000000))
(assert (= temp70_115
   (ite (bvslt var67207 temp70_114)
        (bvadd ARGNAME_input1_NAMEEND_DIM var67207)
        var67207)))
(assert (= temp70_116 (select ARGNAME_input1_NAMEEND_DIMSIZE temp70_115)))
(assert (= var79915 temp70_116))
(assert (bvslt (ite (bvslt var67207 temp70_114)
            (bvadd ARGNAME_input1_NAMEEND_DIM var67207)
            var67207)
       ARGNAME_input1_NAMEEND_DIM))
(assert (= temp70_117 #xffffffffffffffff))
(assert (= var67207 temp70_117))
(assert (= temp70_118 #x0000000000000000))
(assert (= temp70_119
   (ite (bvslt var67207 temp70_118)
        (bvadd ARGNAME_input2_NAMEEND_DIM var67207)
        var67207)))
(assert (= temp70_120 (select ARGNAME_input2_NAMEEND_DIMSIZE temp70_119)))
(assert (= var79938 temp70_120))
(assert (bvslt (ite (bvslt var67207 temp70_118)
            (bvadd ARGNAME_input2_NAMEEND_DIM var67207)
            var67207)
       ARGNAME_input2_NAMEEND_DIM))
(assert (= temp70_122 #x0000000000000003))
(assert (= temp70_121 temp70_122))
(assert (= temp70_124 #x0000000000000003))
(assert (= temp70_123 temp70_124))
(assert (= var4533243 var66592))
(assert (= temp70_125 #x000000000000003f))
(assert (= var4533374 (bvlshr var4533243 temp70_125)))
(assert (= temp70_127 #x0000000000000000))
(assert (= temp70_126 temp70_127))
(assert (= temp70_128 #x0000000000000000))
(assert (= var5318818 temp70_128))
(assert (= temp70_129 #x0000000000000001))
(assert (= var5973063 temp70_129))
(assert (= temp70_131 #x0000000000000000))
(assert (= temp70_130 temp70_131))
(assert (= temp70_132 #x0000000000000000))
(assert (= var6957218 temp70_132))
(assert (= temp70_133 #x0000000000000001))
(assert (= var7611463 temp70_133))
(assert (= temp70_135 #x0000000000000000))
(assert (= temp70_134 temp70_135))
(assert (= temp70_136 #x0000000000000000))
(assert (= var8595618 temp70_136))
(assert (= temp70_137 #x0000000000000001))
(assert (= var9249863 temp70_137))
(assert (= temp70_139 #x0000000000000000))
(assert (= temp70_138 temp70_139))
(assert (= temp70_140 #x0000000000000000))
(assert (= var10234018 temp70_140))
(assert (= temp70_141 #x0000000000000001))
(assert (= var10888263 temp70_141))
(assert (= temp70_143 #x0000000000000000))
(assert (= temp70_142 temp70_143))
(assert (= temp70_144 #x0000000000000000))
(assert (= var11871253 temp70_144))
(assert (= var11936800 var11871253))
(assert (= temp70_145 #xffffffffffffffff))
(assert (= var4533542 temp70_145))
(assert (= temp70_146 #x0000000000000000))
(assert (= var4533583 temp70_146))
(assert (= var4533617 var4533583))
(assert (= var4533671 var4533617))
(assert (= var15081033 var4533243))
(assert (= var15408713 var4533243))
(assert (= var15736393 var4533243))
(assert (= temp70_147 #x0000000000000000))
(assert (= var4533720
   (ite (= ARGNAME_weight_NAMEEND_NUMELEMENT temp70_147)
        #x0000000000000001
        #x0000000000000000)))
(assert (= temp70_148 #x0000000000000000))
(assert (= var4533720 temp70_148))
(assert (= var16850505 var4533243))
(assert (= temp70_150 #x0000000000000000))
(assert (= temp70_149 temp70_150))
(assert (= temp70_151 #x0000000000000000))
(assert (= var17310741 temp70_151))
(assert (= var17376288 var17310741))
(assert (= var17772587 var4533243))
(assert (= temp70_152 #x0000000000000001))
(assert (= var17772589 temp70_152))
(assert (= var17838123 var4533243))
(assert (= temp70_153 #x0000000000000001))
(assert (= var17838125 temp70_153))
(assert (= var18362411 var4533243))
(assert (= temp70_154 #x0000000000000001))
(assert (= var18362413 temp70_154))
(assert (= temp70_155 #x0000000000000001))
(assert (= var19735623 temp70_155))
(assert (= temp70_157 #x0000000000000000))
(assert (= temp70_156 temp70_157))
(assert (= temp70_158 #x0000000000000000))
(assert (= var20522005 temp70_158))
(assert (= temp70_159 #x0000000000000001))
(assert (= var18683626 temp70_159))
(assert (= var18683596 var18683626))
(assert (= var18683595 var18683596))
(assert (= temp70_161 #xffffffffffffffff))
(assert (= temp70_160 temp70_161))
(assert (= temp70_162 #x0000000000000000))
(assert (= var18684104 temp70_162))
(assert (= temp70_163 #x0000000000000001))
(assert (= var18684038 (bvadd var18684104 temp70_163)))
(assert (= var18684037 var18684038))
(assert (= var18684116 var18684037))
(assert (= var18684152 var18684116))
(assert (= temp70_164 #x0000000000000001))
(assert (= var18684136 (bvadd var18684152 temp70_164)))
(assert (= var18684135 var18684136))
(assert (= temp70_166 #x0000000000000003))
(assert (= temp70_165 temp70_166))
(assert (= temp70_168 #x0000000000000003))
(assert (= temp70_167 temp70_168))
(model-add temp70_1 () (_ BitVec 64) #x0000000000000001)
(model-add var79569 () (_ BitVec 64) #x0000000000000001)
(model-del k!0)
(model-add ARGNAME_input1_NAMEEND_DIM
           ()
           (_ BitVec 64)
           (ite k!0
                ARGNAME_input2_NAMEEND_DIM
                (bvnot ARGNAME_input2_NAMEEND_DIM)))



